%%% static parameters %%%
timespan = 1;
Fact = [2];
Distr1 = [5];
Distr2 = [10];
Clients_N = [100];
Demand_W = [15];
Lt0 = [4];
Lt1 = [4];
SS_ = [0.85];
DS_D = [8];
K = [200];
MA = [500];
%%% dynamic parameters %%%
lost_ratio_sales_ret_th = 0.38831147892709983;
lost_ratio_sales_ret_w = 45;
lost_ratio_sales_dis_th = 0.4582589550071773;
lost_ratio_sales_dis_w = 70;
lost_ratio_sales_fac_th = 0.22268073532309862;
lost_ratio_sales_fac_w = 13;
stock_customer_MA_mean_relative_th = 0.1479488634339592;
stock_customer_MA_mean_relative_w = 40;
stock_distributor_MA_mean_relative_th = 0.8690258695545594;
stock_distributor_MA_mean_relative_w = 61;
stock_retailer_MA_mean_relative_th = 0.025578502790790547;
stock_retailer_MA_mean_relative_w = 33;
stock_factory_MA_mean_relative_th = 0.0519484498234547;
stock_factory_MA_mean_relative_w = 94;
